
Gurobi 12.0.2 (win64) logging started Mon Nov  3 21:51:47 2025

Set parameter LogFile to value "C:\Ioana\_uni\honours\slp\algorithm\Main_files\results\starting with cytosolic APAP\Task_004_Sample002_irr_gurobi.log"
Gurobi Optimizer version 12.0.2 build v12.0.2rc0 (win64 - Windows 11.0 (26100.2))

CPU model: Intel(R) Core(TM) Ultra 5 125H, instruction set [SSE2|AVX|AVX2]
Thread count: 14 physical cores, 18 logical processors, using up to 18 threads

Non-default parameters:
TimeLimit  2200

Optimize a model with 47236 rows, 34513 columns and 146723 nonzeros
Model fingerprint: 0x259b516b
Variable types: 17264 continuous, 17249 integer (17249 binary)
Coefficient statistics:
  Matrix range     [1e-04, 8e+04]
  Objective range  [1e-04, 9e-01]
  Bounds range     [1e+00, 1e+03]
  RHS range        [1e+00, 1e+00]
Presolve removed 30820 rows and 21540 columns
Presolve time: 0.33s
Presolved: 16416 rows, 12973 columns, 54854 nonzeros
Variable types: 6424 continuous, 6549 integer (6549 binary)
Found heuristic solution: objective 5.5484185

Root relaxation: objective 7.775737e-03, 6 iterations, 0.01 seconds (0.00 work units)

    Nodes    |    Current Node    |     Objective Bounds      |     Work
 Expl Unexpl |  Obj  Depth IntInf | Incumbent    BestBd   Gap | It/Node Time

*    0     0               0       0.0077757    0.00778  0.00%     -    0s

Explored 1 nodes (6 simplex iterations) in 0.43 seconds (0.46 work units)
Thread count was 18 (of 18 available processors)

Solution count 2: 0.00777574 5.54842 

Optimal solution found (tolerance 1.00e-04)
Best objective 7.775736654250e-03, best bound 7.775736654250e-03, gap 0.0000%

Gurobi 12.0.2 (win64) logging started Mon Nov  3 21:53:04 2025

Set parameter LogFile to value "C:\Ioana\_uni\honours\slp\algorithm\Main_files\results\starting with cytosolic APAP\Task_004_Sample002_irr_gurobi.log"
Gurobi Optimizer version 12.0.2 build v12.0.2rc0 (win64 - Windows 11.0 (26100.2))

CPU model: Intel(R) Core(TM) Ultra 5 125H, instruction set [SSE2|AVX|AVX2]
Thread count: 14 physical cores, 18 logical processors, using up to 18 threads

Non-default parameters:
TimeLimit  2200

Optimize a model with 47236 rows, 34513 columns and 146723 nonzeros
Model fingerprint: 0x73d934c3
Variable types: 17264 continuous, 17249 integer (17249 binary)
Coefficient statistics:
  Matrix range     [1e-04, 8e+04]
  Objective range  [1e-04, 1e+01]
  Bounds range     [1e+00, 1e+03]
  RHS range        [1e+00, 1e+00]
Presolve removed 30820 rows and 21540 columns
Presolve time: 0.33s
Presolved: 16416 rows, 12973 columns, 54854 nonzeros
Variable types: 6424 continuous, 6549 integer (6549 binary)
Found heuristic solution: objective 60.2852606

Root relaxation: objective 7.775737e-03, 6 iterations, 0.01 seconds (0.00 work units)

    Nodes    |    Current Node    |     Objective Bounds      |     Work
 Expl Unexpl |  Obj  Depth IntInf | Incumbent    BestBd   Gap | It/Node Time

*    0     0               0       0.0077757    0.00778  0.00%     -    0s

Explored 1 nodes (6 simplex iterations) in 0.43 seconds (0.46 work units)
Thread count was 18 (of 18 available processors)

Solution count 2: 0.00777574 60.2853 

Optimal solution found (tolerance 1.00e-04)
Best objective 7.775736654250e-03, best bound 7.775736654250e-03, gap 0.0000%
